p cnf 1 82
-1 0
-1 0
-1 0
-1 0
-1 0
-1 0
-1 0
-1 0
1 0
1 0
1 0
-1 0
-1 0
1 0
1 0
1 0
1 0
1 0
1 0
-1 0
1 0
-1 0
-1 0
-1 0
-1 0
-1 0
1 0
-1 0
-1 0
-1 0
1 0
-1 0
1 0
-1 0
-1 0
-1 0
1 0
-1 0
1 0
-1 0
-1 0
-1 0
1 0
-1 0
1 0
-1 0
-1 0
1 0
-1 0
-1 0
1 0
1 0
-1 0
-1 0
1 0
-1 0
-1 0
1 0
-1 0
1 0
-1 0
1 0
1 0
-1 0
1 0
1 0
-1 0
-1 0
-1 0
-1 0
-1 0
1 0
1 0
1 0
1 0
-1 0
-1 0
-1 0
1 0
-1 0
1 0
-1 0
